134596
1,29,5,60,78,34,7,3,49,51,40,38,62,82,27,37,15,10,39,57,8,45,53,44,63,0,28,9,72,61,69,25,35,65,19,66,75,13,79,70,36,12,17,20,4,18,23,47,30,64,52,58,67,43,21,81,74,31,73,76,16,26,6,32,50,55,46,80,2,56,42,41,24,68,14,77,54,22,11,48,33,59,71